c 
c G(k,n,p) graph
c graph gen seed     : 49301
c number of vertices : 60
c max number of edges: 900
c number of classes  : 2
c edge density       : 0.400000
c edge probability   : 0.800000
c data structure     : dense
c
c           Graph Stats
c number of vertices  : 60
c nonisolated vertices: 60
c number of edges     : 657
c edge density        : 0.371186
c max degree          : 36
c avg degree          : 21.90
c min degree          : 12
p col 60 657
e 1 5
e 1 6
e 1 7
e 1 10
e 1 11
e 1 13
e 1 16
e 1 19
e 1 24
e 1 40
e 1 45
e 1 46
e 1 47
e 1 50
e 1 54
e 1 55
e 1 59
e 1 60
e 2 5
e 2 6
e 2 10
e 2 11
e 2 13
e 2 16
e 2 19
e 2 24
e 2 37
e 2 40
e 2 45
e 2 47
e 2 50
e 2 54
e 2 55
e 2 59
e 2 60
e 3 4
e 3 8
e 3 9
e 3 12
e 3 14
e 3 17
e 3 18
e 3 21
e 3 22
e 3 23
e 3 25
e 3 26
e 3 27
e 3 28
e 3 29
e 3 30
e 3 31
e 3 33
e 3 34
e 3 35
e 3 36
e 3 38
e 3 39
e 3 41
e 3 42
e 3 44
e 3 48
e 3 49
e 3 51
e 3 52
e 3 56
e 3 57
e 3 58
e 4 5
e 4 6
e 4 7
e 4 10
e 4 11
e 4 13
e 4 16
e 4 19
e 4 37
e 4 40
e 4 45
e 4 46
e 4 47
e 4 50
e 4 54
e 4 55
e 4 59
e 4 60
e 5 8
e 5 9
e 5 12
e 5 14
e 5 15
e 5 17
e 5 18
e 5 20
e 5 21
e 5 22
e 5 23
e 5 25
e 5 27
e 5 29
e 5 32
e 5 33
e 5 34
e 5 36
e 5 38
e 5 39
e 5 41
e 5 42
e 5 43
e 5 49
e 5 51
e 5 52
e 5 53
e 5 56
e 5 57
e 5 58
e 6 8
e 6 9
e 6 12
e 6 14
e 6 15
e 6 17
e 6 20
e 6 21
e 6 22
e 6 23
e 6 25
e 6 26
e 6 27
e 6 28
e 6 29
e 6 30
e 6 31
e 6 32
e 6 33
e 6 34
e 6 35
e 6 36
e 6 38
e 6 41
e 6 42
e 6 44
e 6 49
e 6 51
e 6 52
e 6 53
e 6 56
e 6 57
e 7 9
e 7 12
e 7 14
e 7 15
e 7 17
e 7 18
e 7 20
e 7 21
e 7 22
e 7 25
e 7 26
e 7 27
e 7 28
e 7 29
e 7 33
e 7 34
e 7 35
e 7 36
e 7 38
e 7 39
e 7 42
e 7 43
e 7 48
e 7 49
e 7 51
e 7 52
e 7 53
e 7 56
e 7 57
e 7 58
e 8 11
e 8 13
e 8 19
e 8 24
e 8 37
e 8 40
e 8 45
e 8 46
e 8 47
e 8 50
e 8 54
e 8 55
e 8 59
e 8 60
e 9 10
e 9 13
e 9 24
e 9 40
e 9 45
e 9 46
e 9 47
e 9 50
e 9 54
e 9 55
e 9 59
e 9 60
e 10 12
e 10 14
e 10 15
e 10 17
e 10 18
e 10 20
e 10 21
e 10 22
e 10 23
e 10 25
e 10 26
e 10 28
e 10 29
e 10 31
e 10 32
e 10 33
e 10 34
e 10 35
e 10 36
e 10 38
e 10 39
e 10 41
e 10 42
e 10 43
e 10 48
e 10 49
e 10 51
e 10 52
e 10 56
e 10 57
e 10 58
e 11 12
e 11 15
e 11 20
e 11 21
e 11 22
e 11 23
e 11 25
e 11 26
e 11 27
e 11 28
e 11 29
e 11 30
e 11 31
e 11 32
e 11 33
e 11 34
e 11 36
e 11 38
e 11 39
e 11 41
e 11 42
e 11 43
e 11 44
e 11 49
e 11 56
e 12 13
e 12 16
e 12 19
e 12 24
e 12 37
e 12 45
e 12 47
e 12 50
e 12 55
e 12 59
e 13 14
e 13 15
e 13 17
e 13 18
e 13 20
e 13 21
e 13 22
e 13 23
e 13 25
e 13 26
e 13 27
e 13 28
e 13 29
e 13 31
e 13 32
e 13 33
e 13 34
e 13 35
e 13 36
e 13 38
e 13 42
e 13 43
e 13 48
e 13 49
e 13 51
e 13 52
e 13 53
e 13 56
e 13 57
e 13 58
e 14 16
e 14 24
e 14 37
e 14 45
e 14 54
e 14 59
e 15 16
e 15 19
e 15 37
e 15 40
e 15 45
e 15 46
e 15 50
e 15 54
e 15 55
e 15 59
e 15 60
e 16 17
e 16 21
e 16 22
e 16 23
e 16 25
e 16 26
e 16 27
e 16 28
e 16 29
e 16 30
e 16 31
e 16 32
e 16 33
e 16 34
e 16 35
e 16 36
e 16 38
e 16 39
e 16 41
e 16 42
e 16 43
e 16 44
e 16 48
e 16 49
e 16 51
e 16 52
e 16 53
e 16 56
e 16 57
e 16 58
e 17 37
e 17 40
e 17 45
e 17 46
e 17 47
e 17 50
e 17 54
e 17 55
e 17 59
e 17 60
e 18 19
e 18 37
e 18 45
e 18 47
e 18 50
e 18 54
e 18 59
e 18 60
e 19 20
e 19 22
e 19 25
e 19 26
e 19 27
e 19 28
e 19 29
e 19 30
e 19 32
e 19 33
e 19 34
e 19 35
e 19 36
e 19 38
e 19 39
e 19 41
e 19 48
e 19 49
e 19 51
e 19 52
e 19 53
e 19 56
e 19 58
e 20 24
e 20 37
e 20 40
e 20 45
e 20 46
e 20 47
e 20 50
e 20 54
e 20 55
e 20 59
e 20 60
e 21 40
e 21 45
e 21 46
e 21 47
e 21 50
e 21 54
e 21 55
e 21 59
e 22 24
e 22 37
e 22 40
e 22 45
e 22 46
e 22 47
e 22 50
e 22 54
e 22 55
e 22 59
e 22 60
e 23 24
e 23 40
e 23 45
e 23 46
e 23 50
e 23 54
e 23 55
e 23 59
e 23 60
e 24 26
e 24 27
e 24 28
e 24 31
e 24 32
e 24 33
e 24 34
e 24 35
e 24 36
e 24 38
e 24 39
e 24 42
e 24 43
e 24 44
e 24 48
e 24 49
e 24 51
e 24 53
e 24 56
e 24 57
e 24 58
e 25 40
e 25 45
e 25 46
e 25 50
e 25 54
e 25 55
e 25 59
e 25 60
e 26 37
e 26 40
e 26 45
e 26 46
e 26 47
e 26 50
e 26 54
e 26 55
e 26 59
e 26 60
e 27 37
e 27 40
e 27 45
e 27 46
e 27 47
e 27 50
e 27 55
e 27 59
e 28 37
e 28 40
e 28 45
e 28 47
e 28 50
e 28 54
e 28 55
e 28 59
e 28 60
e 29 37
e 29 46
e 29 47
e 29 50
e 29 54
e 29 55
e 29 59
e 29 60
e 30 37
e 30 45
e 30 46
e 30 47
e 30 54
e 30 55
e 30 59
e 30 60
e 31 37
e 31 40
e 31 45
e 31 47
e 31 50
e 31 55
e 32 37
e 32 40
e 32 45
e 32 47
e 32 50
e 32 55
e 32 59
e 32 60
e 33 37
e 33 40
e 33 45
e 33 46
e 33 50
e 33 54
e 33 55
e 33 59
e 33 60
e 34 37
e 34 40
e 34 50
e 34 54
e 34 55
e 34 59
e 34 60
e 35 40
e 35 45
e 35 46
e 35 50
e 35 54
e 35 59
e 36 37
e 36 45
e 36 46
e 36 47
e 36 50
e 36 54
e 36 55
e 36 59
e 36 60
e 37 38
e 37 39
e 37 41
e 37 42
e 37 43
e 37 44
e 37 48
e 37 51
e 37 52
e 37 53
e 37 56
e 37 57
e 37 58
e 38 40
e 38 45
e 38 46
e 38 50
e 38 54
e 38 55
e 38 59
e 38 60
e 39 40
e 39 45
e 39 46
e 39 47
e 39 50
e 39 54
e 39 55
e 39 60
e 40 41
e 40 42
e 40 43
e 40 44
e 40 48
e 40 49
e 40 52
e 40 53
e 40 56
e 40 58
e 41 45
e 41 46
e 41 50
e 41 54
e 41 55
e 41 59
e 42 47
e 42 54
e 42 55
e 42 59
e 43 45
e 43 46
e 43 47
e 43 54
e 43 55
e 43 59
e 43 60
e 44 45
e 44 46
e 44 47
e 44 55
e 44 59
e 44 60
e 45 48
e 45 49
e 45 51
e 45 53
e 45 56
e 45 57
e 46 49
e 46 51
e 46 53
e 46 56
e 46 57
e 46 58
e 47 48
e 47 49
e 47 51
e 47 53
e 47 56
e 47 57
e 47 58
e 48 50
e 48 54
e 48 55
e 48 59
e 49 50
e 49 54
e 49 55
e 49 59
e 49 60
e 50 53
e 50 56
e 50 57
e 50 58
e 51 55
e 51 60
e 52 54
e 52 55
e 52 59
e 52 60
e 53 54
e 53 55
e 53 59
e 53 60
e 54 56
e 54 57
e 54 58
e 55 56
e 56 60
e 57 59
e 57 60
e 58 59
e 58 60
